# some global params
units real
boundary p p p #all periodic
atom_style full #bonds, bends, torsions, etc
timestep 1.000000 # femtoseconds (1e-15 s)

# the atoms file
read_restart water_pair.restart
#read_data water_pair.xyz
#replicate 5 5 5

# methods for potential/force calculations
kspace_style ewald/disp 1.0e-6
pair_style lj/cut/coul/long 10

#pair_characterization eps sigma cut_1 cut_2
pair_coeff 2 2 0 3.428 10 #H-H sigma = r_min-i+r_min-j 
pair_coeff 1 2 0 3.3 10 #O-H Mixing rules were RMS 
pair_coeff 1 1 0.15535 3.166 9.4 #O-O http://citeseerx.ist.psu.edu/viewdoc/download?doi=10.1.1.460.309&rep=rep1&type=pdf 
#bond_coeff N args
bond_style harmonic
bond_coeff 1 0 1.0
#angle_coeff N args
angle_style harmonic
angle_coeff 1 0 109.47

#fix holditbond1 all restrain bond 1 2 1000 1000 1
#fix holditbond2 all restrain bond 1 3 1000 1000 1
#fix holditbond3 all restrain bond 4 5 1000 1000 1
#fix holditbond4 all restrain bond 4 6 1000 1000 1

fix holdit all shake 0.001 20 0 b 1 a 1

#fix ID group-ID restrain angle atom1 atom2 atom3 Kstart Kstop theta
#fix holditangle1 all restrain angle 2 1 3 1000 1000 109.47
#fix holditangle2 all restrain angle 5 4 6 1000 1000 109.47

dump Dump all xyz 1 lammps_traj.xyz
dump_modify Dump sort id
dump_modify Dump element O H
dump_modify Dump pbc yes

dump Dumplammps all atom 100 dump.lammps

restart 10 water_pair.1.restart water_pair.restart

variable dipole_x atom x*q
variable dipole_y atom y*q
variable dipole_z atom z*q
#systemDipole_x
compute sD_x all reduce sum v_dipole_x
compute sD_y all reduce sum v_dipole_y
compute sD_z all reduce sum v_dipole_z

variable yeetx equal c_sD_x
variable yeety equal c_sD_y
variable yeetz equal c_sD_z

variable total_system_dipole equal sqrt((c_sD_x*c_sD_x)+(c_sD_y*c_sD_y)+(c_sD_z*c_sD_z))

fix get_total_system_dipole all print 1 "${yeetx} ${yeety} ${yeetz}" file "dipole.txt" 

thermo_style one #print to terminal
thermo 1


#velocity all create 100 12345 rot yes mom yes dist gaussian
fix 2 all npt temp 298 298 1000 iso 10 10 1000 #random_number atoms_assigned ensemble thermostat start_temp end_temp gradient_step
#fix 3 all rigid/nvt molecule temp 293 293 100

run 20000
write_data SPCF_250.init nocoeff
