# some global params
units real
boundary p p p #all periodic
atom_style full #bonds, bends, torsions, etc
timestep 1.000000 # femtoseconds (1e-15 s)

# the atoms file
read_restart water_pair.restart
#read_data water_pair.xyz
#replicate 5 5 5

# methods for potential/force calculations
kspace_style ewald/disp 1.0e-6
pair_style lj/cut/coul/long 10

# pair_characterization eps sigma cut_1 cut_2
pair_coeff 2 2 0 0.898 2.7 #H-H sigma = 2*r_min 
pair_coeff 1 2 0 0.4 2.7 #O-H Mixing rules were RMS 
pair_coeff 1 1 0.1521 3.166 9.45 #O-O  Parameters from Jorgensen, cutoff is 3*sig

bond_style harmonic
bond_coeff 1 669.13 1.0

angle_style harmonic
angle_coeff 1 0 109.5

#fix ID group-ID restrain angle atom1 atom2 atom3 Kstart Kstop theta
#fix holdit1 all restrain angle 2 1 3 100 2000 109.5
#fix holdit2 all restrain angle 5 4 6 100 2000 109.5

fix holdit all shake 0.001 20 0 b 1 a 1

# velocity all create 298 3

#dump Dump all xyz 10 lammps_traj.xyz
#dump_modify Dump sort id
#dump_modify Dump element  O H
#dump_modify Dump pbc yes

dump Dumplammps all atom 10 dump.lammps

restart 10 water_pair.1.restart water_pair.restart

thermo_style custom step temp vol press density pe ke etotal evdwl ecoul epair ebond eangle edihed eimp emol elong etail #print to terminal
thermo 10

#velocity all create 100 12345 rot yes mom yes dist gaussian
fix 2 all npt temp 298 298 1000 iso 10 10 1000 #random_number atoms_assigned ensemble thermostat start_temp end_temp gradient_step
#fix 3 all rigid/nvt molecule temp 293 293 100

run 10
write_data SPCF_250.init nocoeff
