# some global params
units real
boundary p p p #all periodic
atom_style full #bonds, bends, torsions, etc
timestep 1.000000 # femtoseconds (1e-15 s)

# the atoms file
#read_restart water_pair.restart
read_data water_pair.xyz
#read_data SPCF_250.init
replicate 10 10 10

# methods for potential/force calculations
kspace_style ewald/disp 1.0e-6
pair_style lj/cut/coul/long 5 

# pair_characterization eps sigma cut_1 cut_2
pair_coeff 2 2 0 0.898 2.7 #H-H sigma = 2*r_min 
pair_coeff 1 2 0 0.4 2.7 #O-H Mixing rules were RMS 
pair_coeff 1 1 0.1521 3.166 5 #9.45 #O-O  Parameters from Jorgensen, cutoff is 3*sig

#bond_style harmonic
#bond_coeff 1 669.13 1.0

#bond_style harmonic
#bond_coeff 1 404.101 1.0

angle_style class2
angle_coeff * 109.5 36.3758 0 0
angle_coeff 1 bb -2.414 1 1
angle_coeff 1 ba 5.4492 5.4492 1 1

angle_style harmonic
angle_coeff 1 36.3758 109.5 # (-0.101 mdyn/A)x100/4.1841x2

#fix ID group-ID restrain angle atom1 atom2 atom3 Kstart Kstop theta
#fix holdit1 all restrain angle 2 1 3 100 2000 109.5
#fix holdit2 all restrain angle 5 4 6 100 2000 109.5

#fix holdit all shake 0.001 20 0 b 1 a 1

# velocity all create 298 3

#dump Dump all xyz 10 lammps_traj.xyz
#dump_modify Dump sort id
#dump_modify Dump element  O H
#dump_modify Dump pbc yes

dump Dumplammps all atom 10 dump.lammps

restart 10 water_pair.1.restart water_pair.restart

compute cc1 all chunk/atom molecule
compute myChunk all dipole/chunk cc1
fix 1 all ave/time 1 1 1 c_myChunk[*] file tmp.out mode vector

#variable dipole_x atom x*q
#variable dipole_y atom y*q
#variable dipole_z atom z*q
#systemDipole_x
#compute sD_x all reduce sum v_dipole_x
#compute sD_y all reduce sum v_dipole_y
#compute sD_z all reduce sum v_dipole_z

#variable yeetx equal c_sD_x
#variable yeety equal c_sD_y
#variable yeetz equal c_sD_z

#variable total_system_dipole equal sqrt((c_sD_x*c_sD_x)+(c_sD_y*c_sD_y)+(c_sD_z*c_sD_z))

#fix get_total_system_dipole all print 1 "${yeetx} ${yeety} ${yeetz}" file "input.txt"

thermo_style one #print to terminal
thermo 10

#velocity all create 100 12345 rot yes mom yes dist gaussian
fix 2 all nvt temp 298 298 1000 #tchain 2 #iso 10 10 1000 #random_number atoms_assigned ensemble thermostat start_temp end_temp gradient_step
#fix 3 all rigid/nvt molecule temp 293 293 100

run 2000000
write_data SPCF_250.init nocoeff
