# some global params
units real
boundary p p p #all periodic
atom_style full #bonds, bends, torsions, etc
timestep 1.000000 # femtoseconds (1e-15 s)

# the atoms file
#read_restart water_pair.restart
read_data water_pair.xyz
#replicate 10 10 10

# methods for potential/force calculations
#kspace_style ewald/disp 1.0e-6
#pair_style lj/cut/coul/long 10
pair_style lj/cut/coul/cut 10

#pair_characterization eps sigma cut_1 cut_2
pair_coeff 2 2 0 1.6 4.8 #H-H eps = 2*r_min 
pair_coeff 1 2 0 2.4 7.2 #O-H Mixing rules were RMS 
pair_coeff 1 1 0.1591 3.2 9.6 #O-O 

bond_style harmonic
bond_coeff 1 669.13 1.0

angle_style harmonic
angle_coeff 1 164 104.5

#velocity all create 298 3

dump Dump all xyz 10 lammps_traj.xyz
dump_modify Dump sort id
dump_modify Dump element  O H
dump_modify Dump pbc yes

dump Dumplammps all atom 10 dump.lammps

restart 10 water_pair.1.restart water_pair.restart

compute cc1 all chunk/atom molecule
compute myChunk all dipole/chunk cc1
fix 1 all ave/time 1 1 1 c_myChunk[*] file tmp.out mode vector

thermo_style one #print to terminal
thermo 10

#velocity all create 100 12345 rot yes mom yes dist gaussian
fix 2 all nvt temp 298 298 1000 #random_number atoms_assigned ensemble thermostat start_temp end_temp gradient_step
#fix 3 all rigid/nvt molecule temp 293 293 100

run 200000
